data;

set A := 554 218 268 908 192 454 88 898 680 490 358 244 164 694 940 336 668 558 570 442 738 798 586 304 390 278 320 256 402 852 732 868 310 366 44 972 696 786 94 260 496 452 228 718 894 302 86 52 992 988 842 726 16 288 734 960 148 834 422 448 156 194 128 196 576 178 542 778 74 546 104 626;
param T := 18000;

end;
